unsat
(forall ((A (_ BitVec 4))
         (B (_ BitVec 4))
         (C (_ BitVec 1))
         (D (_ BitVec 16))
         (E (_ BitVec 1))
         (F (_ BitVec 16))
         (G (_ BitVec 1))
         (H (_ BitVec 1)))
  (! (let ((a!1 (not (= ((_ extract 15 15) (bvmul #xffff F)) #b0)))
           (a!2 (= ((_ extract 15 15) (bvadd #x00c8 (bvmul #xffff F))) #b1)))
       (= (INV!slice!1 A B C D E F G H)
          (and (or a!1 (= G #b1)) (not (= C #b0)) (or (not a!2) (= G #b1)))))
     :weight 0))
